
  12    4
  10   10   10   10

   0   0   0   0   0   2 2 3 
   4  10  10  10  10   3 11 5 4 
   3  10  10  10  10   3 11 9 6 
   1  10  10  10  10   2 8 6 
   1  10  10  10  10   2 10 7 
   5  10  10  10  10   1 10 
   8  10  10  10  10   1 9 
   3  10  10  10  10   1 9 
  10  10  10  10  10   1 12
   1  10  10  10  10   1 12
   1  10  10  10  10   1 12
   0   0   0   0   0   0 
